Read MPS format model from file dat/rmp/4node_4096_22.mps
Reading time = 0.19 seconds
: 4156 rows, 22034 columns, 524426 nonzeros
Gurobi Optimizer version 9.0.0 build v9.0.0rc2 (linux64)
Optimize a model with 4156 rows, 22034 columns and 524426 nonzeros
Model fingerprint: 0x273fc3c7
Coefficient statistics:
  Matrix range     [1e-03, 2e+01]
  Objective range  [2e-02, 1e+04]
  Bounds range     [0e+00, 0e+00]
  RHS range        [1e+00, 8e+01]
Ordering time: 0.01s

Barrier statistics:
 AA' NZ     : 1.964e+05
 Factor NZ  : 2.421e+05 (roughly 12 MBytes of memory)
 Factor Ops : 1.516e+07 (less than 1 second per iteration)
 Threads    : 1

                  Objective                Residual
Iter       Primal          Dual         Primal    Dual     Compl     Time
   0   1.78875520e+07  0.00000000e+00  3.78e+04 2.40e+02  3.95e+04     0s
   1   8.60384871e+05 -2.04419418e+07  1.77e+03 1.10e+03  2.87e+03     0s
   2   4.99133711e+05 -1.79609269e+07  9.79e+02 9.10e+02  1.88e+03     0s
   3   1.26935778e+05 -1.25468148e+07  6.11e+01 4.59e+02  7.34e+02     0s
   4   1.03297949e+05 -9.19977841e+05  4.00e-09 2.36e+01  5.30e+01     0s
   5   6.85278471e+04 -4.34995111e+05  7.98e-09 1.13e+01  2.57e+01     0s
   6   3.42711899e+04 -1.32120026e+05  3.64e-09 3.36e+00  8.37e+00     0s
   7   3.91655020e+03 -1.77202747e+04  1.72e-09 3.23e-01  1.05e+00     0s
   8   2.64568324e+03 -9.89335413e+03  1.39e-09 1.45e-01  6.01e-01     0s
   9   8.97462316e+02 -5.19408675e+03  9.01e-10 5.06e-02  2.87e-01     0s
  10   6.75900352e+02 -4.08158196e+03  7.29e-10 3.66e-02  2.23e-01     0s
  11   3.69194939e+01 -2.84545591e+03  6.24e-10 1.92e-02  1.35e-01     1s
  12  -1.79247673e+02 -1.92068089e+03  4.50e-10 1.06e-02  8.14e-02     1s
  13  -2.61630006e+02 -4.95190624e+02  6.70e-10 4.28e-04  1.07e-02     1s
  14  -4.11007829e+02 -4.68335424e+02  8.34e-10 1.72e-05  2.61e-03     1s
  15  -4.18508615e+02 -4.60374474e+02  6.27e-09 7.73e-06  1.90e-03     1s
  16  -4.39696791e+02 -4.47938811e+02  6.66e-08 2.56e-07  3.74e-04     1s
  17  -4.46101938e+02 -4.47027266e+02  2.42e-07 3.49e-08  4.20e-05     1s
  18  -4.46804217e+02 -4.46894940e+02  1.47e-06 8.22e-09  4.12e-06     1s
  19  -4.46804264e+02 -4.46894052e+02  2.45e-06 8.03e-09  4.08e-06     1s
  20  -4.46804544e+02 -4.46891943e+02  4.35e-06 7.43e-09  3.97e-06     1s
  21  -4.46804666e+02 -4.46891833e+02  8.51e-06 7.40e-09  3.97e-06     1s
  22  -4.46804484e+02 -4.46891693e+02  2.22e-06 7.40e-09  3.96e-06     1s
  23  -4.46804523e+02 -4.46872924e+02  3.99e-06 3.19e-09  3.10e-06     1s
  24  -4.46804900e+02 -4.46859125e+02  4.08e-06 3.38e-10  2.46e-06     1s
  25  -4.46809924e+02 -4.46857776e+02  5.26e-06 7.48e-11  2.17e-06     1s
  26  -4.46810060e+02 -4.46857361e+02  5.37e-06 1.88e-11  2.14e-06     1s
  27  -4.46810900e+02 -4.46857005e+02  5.99e-06 1.46e-11  2.09e-06     1s
  28  -4.46812087e+02 -4.46856893e+02  7.22e-06 1.46e-11  2.03e-06     1s
  29  -4.46816649e+02 -4.46857389e+02  1.02e-05 4.32e-11  1.86e-06     1s
  30  -4.46818670e+02 -4.46856910e+02  1.13e-05 2.33e-11  1.74e-06     1s
  31  -4.46821478e+02 -4.46856647e+02  9.37e-06 1.46e-11  1.61e-06     1s
  32  -4.46834372e+02 -4.46856364e+02  6.72e-06 1.46e-11  1.02e-06     2s
  33  -4.46838933e+02 -4.46856339e+02  5.82e-06 2.91e-11  8.00e-07     2s
  34  -4.46847835e+02 -4.46856266e+02  1.18e-05 1.46e-11  3.78e-07     2s
  35  -4.46855820e+02 -4.46856251e+02  9.12e-07 1.46e-11  1.96e-08     2s
  36  -4.46856244e+02 -4.46856250e+02  1.30e-08 2.91e-11  2.68e-10     2s
  37  -4.46856250e+02 -4.46856250e+02  4.37e-11 2.91e-11  3.69e-15     2s

Barrier solved model in 37 iterations and 1.66 seconds
Optimal objective -4.46856250e+02

Solve time: 1.663459169
Barrier iterations: 37
